results_rootrelaxation/bin024_050_018.srr.sol
solution status: optimal solution found
objective value:                                    0
_var337_                            0.114764710799524 	(obj:0)
_var7052_                            0.10358911049334 	(obj:0)
_var7054_                           0.186762933638711 	(obj:0)
_var7064_                           0.157680336025949 	(obj:0)
_var7072_                          0.0828986275934424 	(obj:0)
_var7079_                           0.213091073283612 	(obj:0)
_var7083_                           0.214611706620681 	(obj:0)
_var7096_                           0.270726804423178 	(obj:0)
_var7099_                          0.0156476860136592 	(obj:0)
_var7101_                          0.0375053085621815 	(obj:0)
_var7102_                           0.111931020860987 	(obj:0)
_var7110_                          0.0213064652531881 	(obj:0)
_var7117_                           0.115237123596767 	(obj:0)
_var7124_                           0.327748449123961 	(obj:0)
_var7143_                          0.0635515672319679 	(obj:0)
_var7152_                           0.216960131996014 	(obj:0)
_var7162_                            0.22944001642196 	(obj:0)
_var7166_                           0.228251245035924 	(obj:0)
_var7167_                           0.190994132346507 	(obj:0)
_var7168_                           0.206139448837784 	(obj:0)
_var7186_                           0.167819438321695 	(obj:0)
_var7189_                            0.14982565591154 	(obj:0)
_var7194_                           0.293992797433108 	(obj:0)
_var7199_                           0.314104566368999 	(obj:0)
_var7200_                          0.0150663520898553 	(obj:0)
_var7208_                          0.0861652401918052 	(obj:0)
_var7218_                          0.0262320132899477 	(obj:0)
_var7219_                           0.127748363594005 	(obj:0)
_var7223_                           0.183488023909975 	(obj:0)
_var7224_                          0.0275088045903383 	(obj:0)
_var7226_                           0.177298034461925 	(obj:0)
_var7228_                           0.140704581944217 	(obj:0)
_var7229_                          0.0640731421270622 	(obj:0)
_var7231_                          0.0712396271069613 	(obj:0)
_var7232_                           0.108063472982656 	(obj:0)
_var7234_                           0.164345878788328 	(obj:0)
_var7235_                          0.0918777152191412 	(obj:0)
_var7236_                          0.0296263102194581 	(obj:0)
_var7237_                           0.114795567420873 	(obj:0)
_var7238_                          0.0485895473181763 	(obj:0)
_var7239_                          0.0715877887593988 	(obj:0)
_var7240_                          0.0873581857096258 	(obj:0)
_var7243_                           0.143379701619014 	(obj:0)
_var7244_                          0.0794921786984595 	(obj:0)
_var7245_                          0.0879319042081141 	(obj:0)
_var7246_                          0.0384886218046313 	(obj:0)
_var7247_                          0.0321754457223257 	(obj:0)
_var7249_                           0.135931091376438 	(obj:0)
_var7254_                           0.079115527040048 	(obj:0)
_var7265_                            0.23533630417584 	(obj:0)
_var7273_                          0.0494988986132607 	(obj:0)
_var7276_                           0.149498505821154 	(obj:0)
_var7280_                          0.0525097731258878 	(obj:0)
_var7282_                          0.0370802155315976 	(obj:0)
_var7287_                          0.0232044339045943 	(obj:0)
_var7289_                          0.0921453637986325 	(obj:0)
_var7290_                           0.162724990254244 	(obj:0)
_var7291_                          0.0564884934776606 	(obj:0)
_var7293_                          0.0533028684768935 	(obj:0)
_var7298_                           0.155153799129472 	(obj:0)
_var7299_                           0.213658079840484 	(obj:0)
_var7300_                          0.0717590226522083 	(obj:0)
_var7301_                         0.00909220410185188 	(obj:0)
_var7303_                          0.0362652368501438 	(obj:0)
_var7305_                           0.286345650507488 	(obj:0)
_var7308_                          0.0742266397023911 	(obj:0)
_var7310_                          0.0343887677349649 	(obj:0)
_var7314_                          0.0377821364169194 	(obj:0)
_var7318_                         0.00594789268480528 	(obj:0)
_var7319_                           0.122726502146086 	(obj:0)
_var7320_                           0.224125360314999 	(obj:0)
_var7321_                           0.182493899387951 	(obj:0)
_var7324_                         0.00853070884131443 	(obj:0)
_var7325_                          0.0255374726633865 	(obj:0)
_var7331_                          0.0515709483358597 	(obj:0)
_var7332_                         0.00151956753525878 	(obj:0)
_var7337_                          0.0038258485715594 	(obj:0)
_var7338_                           0.168050312307794 	(obj:0)
_var7341_                         0.00726803082205372 	(obj:0)
_var7343_                           0.122444586017162 	(obj:0)
_var7344_                           0.344081628567932 	(obj:0)
_var7347_                           0.188983684344648 	(obj:0)
_var7352_                          0.0406618486148062 	(obj:0)
_var7353_                          0.0768337615935089 	(obj:0)
_var7354_                          0.0654241260616567 	(obj:0)
_var7355_                          0.0685061546254331 	(obj:0)
_var7356_                          0.0930269378992091 	(obj:0)
_var7360_                          0.0996901595757284 	(obj:0)
_var7361_                          0.0636170464752015 	(obj:0)
_var7362_                          0.0182309910077308 	(obj:0)
_var7363_                           0.142322854185014 	(obj:0)
_var7364_                          0.0455821407084931 	(obj:0)
_var7368_                          0.0365374767815359 	(obj:0)
_var7375_                          0.0779699640373778 	(obj:0)
_var7386_                           0.311819734580639 	(obj:0)
_var7387_                           0.143479325853566 	(obj:0)
_var7391_                          0.0172610178826925 	(obj:0)
_var7395_                          0.0120716182746626 	(obj:0)
_var7396_                           0.126031192539856 	(obj:0)
_var7398_                          0.0243194549465249 	(obj:0)
_var7402_                           0.183261934899173 	(obj:0)
_var7403_                          0.0718886485092534 	(obj:0)
_var7404_                           0.144858636062334 	(obj:0)
_var7407_                           0.050536575797248 	(obj:0)
_var7408_                           0.120556184657544 	(obj:0)
_var7409_                           0.108084118764823 	(obj:0)
_var7411_                          0.0374250639706638 	(obj:0)
_var7412_                          0.0315252684603988 	(obj:0)
_var7413_                          0.0306111747783396 	(obj:0)
_var7415_                          0.0257051281681289 	(obj:0)
_var7416_                         0.000919347213758802 	(obj:0)
_var7417_                           0.124247964704364 	(obj:0)
_var7419_                          0.0402959118787565 	(obj:0)
_var7420_                         0.00965943177692936 	(obj:0)
_var7421_                          0.0225337800889273 	(obj:0)
_var7422_                         0.00364677462581944 	(obj:0)
_var7423_                           0.165504491589814 	(obj:0)
_var7424_                          0.0353110442024026 	(obj:0)
_var7426_                           0.226523703909874 	(obj:0)
_var7428_                          0.0107903023829536 	(obj:0)
_var7430_                          0.0790106056243093 	(obj:0)
_var7431_                           0.214901056100788 	(obj:0)
_var7433_                            0.12343676843816 	(obj:0)
_var7434_                          0.0591177687074338 	(obj:0)
_var7437_                           0.107113567191228 	(obj:0)
_var7439_                          0.0505308541011348 	(obj:0)
_var7440_                          0.0288978014241998 	(obj:0)
_var7444_                          0.0179899900136113 	(obj:0)
_var7445_                          0.0749595954471697 	(obj:0)
_var7447_                          0.0543844664744796 	(obj:0)
_var7448_                           0.260986609250882 	(obj:0)
_var7451_                            0.16394731628603 	(obj:0)
_var7453_                           0.102204311832495 	(obj:0)
_var7454_                            0.10724050329477 	(obj:0)
_var7456_                            0.03052356634357 	(obj:0)
_var7457_                          0.0339923910879618 	(obj:0)
_var7461_                          0.0281084336975664 	(obj:0)
_var7463_                           0.164871988945905 	(obj:0)
_var7464_                           0.119469306596742 	(obj:0)
_var7468_                           0.114809897545739 	(obj:0)
_var7469_                         0.00266132785037624 	(obj:0)
_var7471_                          0.0462344288102167 	(obj:0)
_var7472_                           0.059911164895841 	(obj:0)
_var7473_                           0.148700595739657 	(obj:0)
_var7474_                          0.0841460893243487 	(obj:0)
_var7477_                           0.195299192645353 	(obj:0)
_var7478_                           0.121740684700822 	(obj:0)
_var7479_                          0.0264670787765604 	(obj:0)
_var7480_                          0.0163132041209822 	(obj:0)
_var7481_                         0.00754435190959388 	(obj:0)
_var7488_                          0.0601768031871501 	(obj:0)
_var7490_                          0.0304646845470271 	(obj:0)
_var7491_                          0.0290351654042893 	(obj:0)
_var7492_                         0.00883775649945089 	(obj:0)
_var7494_                          0.0999587109972283 	(obj:0)
_var7496_                           0.176779506342304 	(obj:0)
_var7498_                           0.112604857272205 	(obj:0)
_var7499_                          0.0435284726753127 	(obj:0)
_var7500_                          0.0436701518014556 	(obj:0)
_var7502_                          0.0808536318472234 	(obj:0)
_var7503_                           0.270013320809621 	(obj:0)
_var7505_                         0.00195236412625632 	(obj:0)
_var7506_                           0.108791136066426 	(obj:0)
_var7507_                          0.0313104959298818 	(obj:0)
_var7511_                          0.0804130483658877 	(obj:0)
_var7512_                            0.14568921178303 	(obj:0)
_var7514_                          0.0701352495240046 	(obj:0)
_var7515_                           0.170617988271312 	(obj:0)
_var7517_                           0.154286889793069 	(obj:0)
_var7518_                          0.0653082561550618 	(obj:0)
_var7519_                          0.0679795412933742 	(obj:0)
_var7521_                          0.0619930788207785 	(obj:0)
_var7522_                          0.0397960496529285 	(obj:0)
_var7525_                         0.00863104258763882 	(obj:0)
_var7526_                          0.0676301583266835 	(obj:0)
_var7527_                          0.0525617966134748 	(obj:0)
_var7528_                          0.0536756146724893 	(obj:0)
_var7533_                           0.127263113770827 	(obj:0)
_var7534_                            0.12026751286767 	(obj:0)
_var7535_                          0.0458192307250681 	(obj:0)
_var7536_                          0.0268568194884496 	(obj:0)
_var7537_                           0.111246564402966 	(obj:0)
_var7539_                          0.0291362730197194 	(obj:0)
_var7540_                         0.00105380657192206 	(obj:0)
_var7541_                          0.0132222674955187 	(obj:0)
_var7543_                         0.00992499583551979 	(obj:0)
_var7544_                           0.062837212324515 	(obj:0)
_var7545_                           0.107505416155914 	(obj:0)
_var7546_                          0.0615443134729512 	(obj:0)
_var7547_                          0.0825751785012651 	(obj:0)
_var7549_                           0.134569053796894 	(obj:0)
_var7550_                          0.0807935171594819 	(obj:0)
_var7551_                          0.0588107935627533 	(obj:0)
_var7553_                           0.101704551971491 	(obj:0)
_var7554_                           0.145338439601086 	(obj:0)
_var7557_                         0.00874884419661143 	(obj:0)
_var7559_                          0.0611941259531282 	(obj:0)
_var7560_                          0.0627995432508822 	(obj:0)
_var7562_                          0.0213482481999143 	(obj:0)
_var7564_                          0.0563495818658273 	(obj:0)
_var7567_                          0.0557142337604604 	(obj:0)
_var7569_                          0.0780317076970424 	(obj:0)
_var7572_                          0.0966198199815862 	(obj:0)
_var7573_                           0.130017773312004 	(obj:0)
_var7575_                            0.15985518922627 	(obj:0)
_var7576_                         0.00482514303792247 	(obj:0)
_var7577_                          0.0927859352286111 	(obj:0)
_var7578_                          0.0788467605980801 	(obj:0)
_var7579_                          0.0333288640893236 	(obj:0)
_var7580_                          0.0305605035655037 	(obj:0)
_var7581_                          0.0345249323860111 	(obj:0)
_var7583_                          0.0300749469699528 	(obj:0)
_var7584_                          0.0243151752435962 	(obj:0)
_var7585_                          0.0366086967936013 	(obj:0)
_var7586_                          0.0197338396390147 	(obj:0)
_var7588_                           0.148384906671166 	(obj:0)
_var7589_                          0.0574022886017499 	(obj:0)
_var7591_                          0.0269026803211191 	(obj:0)
_var7593_                         0.00781405212513889 	(obj:0)
_var7594_                           0.023606590199306 	(obj:0)
_var7595_                          0.0369134434395079 	(obj:0)
_var7596_                           0.135762904005269 	(obj:0)
_var7597_                          0.0482121153008154 	(obj:0)
_var7598_                          0.0307805879720095 	(obj:0)
_var7599_                           0.114543069612384 	(obj:0)
_var7600_                          0.0360384101596364 	(obj:0)
_var7601_                          0.0454823905394351 	(obj:0)
_var7602_                           0.121604973802437 	(obj:0)
_var7604_                          0.0198978674498881 	(obj:0)
_var7606_                          0.0923798112724201 	(obj:0)
_var7610_                           0.117456848631975 	(obj:0)
_var7613_                          0.0726907985683975 	(obj:0)
_var7614_                          0.0043335690401514 	(obj:0)
_var7616_                         0.00894143137168586 	(obj:0)
_var7617_                          0.0915366567051846 	(obj:0)
_var7618_                          0.0289641184026158 	(obj:0)
_var7620_                          0.0579911914859684 	(obj:0)
_var7624_                           0.227716896124822 	(obj:0)
_var7625_                          0.0624144302784699 	(obj:0)
_var7627_                          0.0651122847085513 	(obj:0)
_var7628_                           0.167341881627666 	(obj:0)
_var7633_                          0.0131062865379869 	(obj:0)
_var7634_                          0.0398662476740931 	(obj:0)
_var7636_                          0.0343367106346616 	(obj:0)
_var7637_                          0.0187531417852715 	(obj:0)
_var7638_                          0.0304778844377129 	(obj:0)
_var7641_                          0.0378508385430754 	(obj:0)
_var7644_                          0.0637884395162474 	(obj:0)
_var7645_                          0.0290274237639261 	(obj:0)
_var7647_                          0.0912505374025816 	(obj:0)
_var7650_                          0.0316616220721326 	(obj:0)
_var7651_                          0.0793200376106441 	(obj:0)
_var7652_                            0.07923195525271 	(obj:0)
_var7655_                          0.0576316272097767 	(obj:0)
_var7656_                          0.0131485742288183 	(obj:0)
_var7657_                          0.0379055007994323 	(obj:0)
_var7660_                          0.0309606772336932 	(obj:0)
_var7661_                          0.0170608960950942 	(obj:0)
_var7664_                         0.00836541805362606 	(obj:0)
_var7665_                          0.0745198602634001 	(obj:0)
_var7667_                           0.031405856674568 	(obj:0)
_var7668_                          0.0748265915178454 	(obj:0)
_var7670_                          0.0976303701513565 	(obj:0)
_var7675_                          0.0194942537536555 	(obj:0)
_var7677_                          0.0213024132133754 	(obj:0)
_var7683_                          0.0277581432940984 	(obj:0)
_var7685_                          0.0377151444914742 	(obj:0)
_var7686_                          0.0883787409871068 	(obj:0)
_var7690_                          0.0813101430273857 	(obj:0)
_var7691_                          0.0522297288878724 	(obj:0)
_var7692_                          0.0766603815068386 	(obj:0)
_var7693_                          0.0326191898524307 	(obj:0)
_var7700_                          0.0255100586484818 	(obj:0)
_var7709_                          0.0110594082079704 	(obj:0)
_var7712_                         0.00294427686096111 	(obj:0)
